NAME : tsp_55_sol.txt
COMMENT : OR-Tools Guided Local Search
TYPE : TOUR
DIMENSION : 50
COST : 5872
STATUS : ROUTING_SUCCESS
GAP : 0.00% (Reference Solution)
TOUR_SECTION
1
30
19
42
24
23
47
22
25
5
12
6
11
4
16
28
45
2
34
9
31
27
37
33
13
39
18
20
40
35
43
32
50
49
38
44
41
29
7
14
48
17
15
21
10
26
46
3
36
8
-1
